\* Branch_Utilization_Probelm_Problem *\
Maximize
Utilization_of_Branch_1: 62.25 O_x5
Subject To
Norm: I_x1 + I_x2 + I_x3 + I_x4 = 1
SSC_ISC_PIA: - I_x1 - I_x2 - I_x3 - 56 I_x4 + 76.955 O_x5 + O_x6 <= 0
SSC_MES_PIA: - I_x1 - 3 I_x2 - 60 I_x3 - 3175 I_x4 + 88.05 O_x5 + O_x6 <= 0
TP000006: - I_x1 - I_x2 - I_x3 - 41 I_x4 + 80.2 O_x5 + O_x6 <= 0
TP000048: - 2 I_x1 - 2 I_x2 - 2 I_x3 - 53 I_x4 + 62.3 O_x5
 + 0.77358490566 O_x6 <= 0
TP000098: - 2 I_x1 - I_x2 - 6 I_x3 - 179 I_x4 + 66.25 O_x5
 + 0.91061452514 O_x6 <= 0
TP000126: - I_x1 - I_x2 - 4 I_x3 - 117 I_x4 + 84.75 O_x5 + O_x6 <= 0
TP000140: - 2 I_x1 - I_x2 - 2 I_x3 - 58 I_x4 + 67.33 O_x5 + 0.48275862069 O_x6
 <= 0
TP000187: - 3 I_x1 - 5 I_x2 - 6 I_x3 - 173 I_x4 + 78.91 O_x5
 + 0.947976878613 O_x6 <= 0
TP000194: - 2 I_x1 - 2 I_x2 - 7 I_x3 - 183 I_x4 + 71.5 O_x5
 + 0.928961748634 O_x6 <= 0
TP000241: - 3 I_x1 - 2 I_x2 - 13 I_x3 - 346 I_x4 + 79.75 O_x5
 + 0.846820809249 O_x6 <= 0
TP000433: - I_x1 - 2 I_x2 - 2 I_x3 - 51 I_x4 + 73.86 O_x5
 + 0.882352941176 O_x6 <= 0
TP000440: - I_x1 - I_x2 - I_x3 - 3 I_x4 <= 0
TP000457: - I_x1 - 2 I_x2 - 2 I_x3 - 54 I_x4 + 56.935 O_x5
 + 0.888888888889 O_x6 <= 0
TP000464: - 2 I_x1 - 2 I_x2 - 2 I_x3 - 59 I_x4 + 70.86 O_x5
 + 0.728813559322 O_x6 <= 0
TP000545: - 3 I_x1 - 3 I_x2 - 5 I_x3 - 125 I_x4 + 85.43 O_x5 + 0.976 O_x6 <= 0
TP001123: - I_x1 - I_x2 - 2 I_x3 - 58 I_x4 + 74.56 O_x5 + 0.862068965517 O_x6
 <= 0
TP001285: - 2 I_x1 - 2 I_x2 - 4 I_x3 - 73 I_x4 + 86 O_x5 + 0.780821917808 O_x6
 <= 0
TP001765: - 3 I_x1 - I_x2 - 5 I_x3 - 143 I_x4 + 80.56 O_x5
 + 0.944055944056 O_x6 <= 0
TP003703: - I_x1 - I_x2 - I_x3 - 27 I_x4 + 75.52 O_x5 + 0.925925925926 O_x6
 <= 0
TP004391: - I_x1 - I_x2 - I_x3 - 29 I_x4 + 82.36 O_x5 + 0.931034482759 O_x6
 <= 0
TP010495: - 4 I_x1 - 4 I_x2 - 10 I_x3 - 272 I_x4 + 78.125 O_x5
 + 0.952205882353 O_x6 <= 0
TP014411: - I_x1 - I_x2 - I_x3 - I_x4 <= 0
TP014577: - I_x1 - I_x2 - I_x3 - 50 I_x4 + 76.845 O_x5 + 0.98 O_x6 <= 0
TP014789: - I_x1 - I_x2 - I_x3 - I_x4 <= 0
TP014984: - I_x1 - I_x2 - 9 I_x3 - 309 I_x4 + 73.7 O_x5 + 0.954692556634 O_x6
 <= 0
TP015636: - I_x1 - I_x2 - I_x3 - 21 I_x4 + 70.5 O_x5 + 0.571428571429 O_x6
 <= 0
TP035479: - 2 I_x1 - I_x2 - 3 I_x3 - 92 I_x4 + 69.33 O_x5
 + 0.619565217391 O_x6 <= 0
TP044222: - I_x1 - I_x2 - I_x3 - 29 I_x4 + 65.33 O_x5 + 0.206896551724 O_x6
 <= 0
TP045368: - I_x1 - I_x2 - 2 I_x3 - 53 I_x4 + 70 O_x5 + 0.962264150943 O_x6
 <= 0
TP051538: - I_x1 - 3 I_x2 - 6 I_x3 - 127 I_x4 + 79.7 O_x5 + 0.88188976378 O_x6
 <= 0
TP052111: - I_x1 - I_x2 - 2 I_x3 - 47 I_x4 + 83.03 O_x5 + 0.936170212766 O_x6
 <= 0
TP052114: - I_x1 - 3 I_x2 - 54 I_x3 - 2519 I_x4 + 86.46 O_x5
 + 0.998809051211 O_x6 <= 0
TP052117: - I_x1 - I_x2 - 6 I_x3 - 240 I_x4 + 83.74 O_x5 + 0.954166666667 O_x6
 <= 0
TP052118: - I_x1 - 7 I_x2 - 13 I_x3 - 361 I_x4 + 61.9 O_x5
 + 0.96675900277 O_x6 <= 0
TP052124: - I_x1 - I_x2 - I_x3 - 30 I_x4 + 72.72 O_x5 + 0.966666666667 O_x6
 <= 0
TP052215: - I_x1 - I_x2 - 21 I_x3 - 858 I_x4 + 79.57 O_x5 + O_x6 <= 0
TP052232: - I_x1 - I_x2 - I_x3 - 21 I_x4 + 66 O_x5 <= 0
TP052292: - I_x1 - 4 I_x2 - 23 I_x3 - 749 I_x4 + 79.27 O_x5
 + 0.895861148198 O_x6 <= 0
TP056675: - 2 I_x1 - 7 I_x2 - 16 I_x3 - 488 I_x4 + 67.05 O_x5
 + 0.91393442623 O_x6 <= 0
TP10027: - I_x1 - I_x2 - I_x3 - 10 I_x4 + 83.095 O_x5 + O_x6 <= 0
TP10051: - 2 I_x1 - 2 I_x2 - 2 I_x3 - 60 I_x4 + 79.04 O_x5
 + 0.966666666667 O_x6 <= 0
TP10110: - I_x1 - 5 I_x2 - 5 I_x3 - 68 I_x4 + 61.83 O_x5 + 0.75 O_x6 <= 0
TP10151: - I_x1 - I_x2 - I_x3 - I_x4 + 82.75 O_x5 + O_x6 <= 0
TP10301: - 2 I_x1 - 2 I_x2 - 2 I_x3 - 60 I_x4 + 74.585 O_x5 + 0.95 O_x6 <= 0
TP10405: - I_x1 - I_x2 - I_x3 - 25 I_x4 + 86.67 O_x5 + O_x6 <= 0
TP10429: - I_x1 - I_x2 - I_x3 - I_x4 + 62.25 O_x5 <= 0
TP10544: - I_x1 - I_x2 - 2 I_x3 - 45 I_x4 + 86 O_x5 + O_x6 <= 0
TP10614: - 10 I_x1 - I_x2 - 85 I_x3 - 1789 I_x4 + 74.33 O_x5
 + 0.813862493013 O_x6 <= 0
TP10622: - I_x1 - I_x2 - I_x3 - 22 I_x4 + 84.845 O_x5 + O_x6 <= 0
TP10867: - I_x1 - I_x2 - I_x3 - 35 I_x4 + 62.57 O_x5 + 0.828571428571 O_x6
 <= 0
TP11047: - I_x1 - 6 I_x2 - 46 I_x3 - 2241 I_x4 + 75.42 O_x5 + O_x6 <= 0
TP11219: - I_x1 - I_x2 - I_x3 - 48 I_x4 + 89.2 O_x5 + O_x6 <= 0
TP11567: - I_x1 - I_x2 - I_x3 - 25 I_x4 + 86.75 O_x5 + O_x6 <= 0
TP11576: - 2 I_x1 - 6 I_x2 - 36 I_x3 - 860 I_x4 + 61 O_x5
 + 0.920930232558 O_x6 <= 0
TP11592: - I_x1 - I_x2 - 7 I_x3 - 254 I_x4 + 78.1 O_x5 + 0.984251968504 O_x6
 <= 0
TP11634: - I_x1 - I_x2 - 3 I_x3 - 90 I_x4 + 86.53 O_x5 + O_x6 <= 0
TP32292: - 6 I_x1 - 4 I_x2 - 38 I_x3 - 1155 I_x4 + 73.88 O_x5
 + 0.722943722944 O_x6 <= 0
TP32297: - 2 I_x1 - 2 I_x2 - 9 I_x3 - 273 I_x4 + 81.5 O_x5
 + 0.941391941392 O_x6 <= 0
TP32308: - I_x1 - I_x2 - 4 I_x3 - 93 I_x4 + 73.4 O_x5 + 0.935483870968 O_x6
 <= 0
TP32347: - I_x1 - 13 I_x2 - 126 I_x3 - 3578 I_x4 + 75 O_x5
 + 0.785354946898 O_x6 <= 0
TP32350: - I_x1 - I_x2 - 2 I_x3 - 70 I_x4 + 85.78 O_x5 + 0.957142857143 O_x6
 <= 0
TP32351: - 2 I_x1 - I_x2 - 4 I_x3 - 113 I_x4 + 36 O_x5 + 0.469026548673 O_x6
 <= 0
TP32368: - I_x1 - I_x2 - 4 I_x3 - 130 I_x4 + 92.4 O_x5 + 0.930769230769 O_x6
 <= 0
TP32375: - I_x1 - I_x2 - I_x3 - 16 I_x4 + 68.25 O_x5 + 0.625 O_x6 <= 0
TP32378: - 5 I_x1 - 4 I_x2 - 17 I_x3 - 543 I_x4 + 75 O_x5 + 0.90423572744 O_x6
 <= 0
TP32393: - I_x1 - I_x2 - 3 I_x3 - 86 I_x4 + 84 O_x5 + 0.988372093023 O_x6 <= 0
TP32415: - I_x1 - I_x2 - 3 I_x3 - 88 I_x4 + 70 O_x5 + 0.977272727273 O_x6 <= 0
TP32422: - 2 I_x1 - 2 I_x2 - 9 I_x3 - 257 I_x4 + 74.33 O_x5
 + 0.941634241245 O_x6 <= 0
TP32429: - I_x1 - I_x2 - 4 I_x3 - 123 I_x4 + 77.44 O_x5 + 0.951219512195 O_x6
 <= 0
TP32433: - 3 I_x1 - I_x2 - 7 I_x3 - 206 I_x4 + 77.72 O_x5
 + 0.893203883495 O_x6 <= 0
TP32459: - I_x1 - I_x2 - 3 I_x3 - 84 I_x4 + 73.91 O_x5 + 0.845238095238 O_x6
 <= 0
TP32481: - I_x1 - I_x2 - 8 I_x3 - 219 I_x4 + 73.31 O_x5 + 0.908675799087 O_x6
 <= 0
TP36959: - I_x1 - I_x2 - I_x3 - 25 I_x4 + 73.09 O_x5 + O_x6 <= 0
TP37354: - I_x1 - 2 I_x2 - 3 I_x3 - 56 I_x4 + 60.39 O_x5 + 0.232142857143 O_x6
 <= 0
TP37636: - 5 I_x1 - 3 I_x2 - 7 I_x3 - 221 I_x4 + 74.51 O_x5
 + 0.909502262443 O_x6 <= 0
TP37853: - 2 I_x1 - 2 I_x2 - 8 I_x3 - 297 I_x4 + 80.75 O_x5
 + 0.976430976431 O_x6 <= 0
TP37886: - I_x1 - 3 I_x2 - 3 I_x3 - 45 I_x4 + 77.34 O_x5 + 0.688888888889 O_x6
 <= 0
TP38067: - I_x1 - I_x2 - 2 I_x3 - 16 I_x4 + 86.99 O_x5 + O_x6 <= 0
TP38072: - I_x1 - I_x2 - 2 I_x3 - 59 I_x4 + 76 O_x5 + 0.932203389831 O_x6 <= 0
TP38113: - I_x1 - 2 I_x2 - 31 I_x3 - 1658 I_x4 + 80.75 O_x5
 + 0.945717732207 O_x6 <= 0
TP38163: - I_x1 - I_x2 - I_x3 - 59 I_x4 + 78 O_x5 + 0.966101694915 O_x6 <= 0
TP38166: - 2 I_x1 - 4 I_x2 - 3 I_x3 - 118 I_x4 + 82.58 O_x5
 + 0.906779661017 O_x6 <= 0
TP38167: - 2 I_x1 - I_x2 - 3 I_x3 - 89 I_x4 + 73.25 O_x5 + 0.887640449438 O_x6
 <= 0
TP38357: - 2 I_x1 - I_x2 - 3 I_x3 - 76 I_x4 + 70.5 O_x5 + 0.828947368421 O_x6
 <= 0
TP41368: - 3 I_x1 - I_x2 - 6 I_x3 - 137 I_x4 + 79.82 O_x5
 + 0.868613138686 O_x6 <= 0
TP42985: - 2 I_x1 - I_x2 - 6 I_x3 - 117 I_x4 + 70.37 O_x5
 + 0.940170940171 O_x6 <= 0
TP43323: - I_x1 - I_x2 - 2 I_x3 - 46 I_x4 + 73.235 O_x5 + 0.826086956522 O_x6
 <= 0
TP43829: - 2 I_x1 - I_x2 - 5 I_x3 - 151 I_x4 + 55 O_x5 + 0.655629139073 O_x6
 <= 0
TP44339: - I_x1 - I_x2 - 4 I_x3 - 103 I_x4 + 81.75 O_x5 + 0.796116504854 O_x6
 <= 0
TP44457: - 2 I_x1 - I_x2 - 5 I_x3 - 146 I_x4 + 84.5 O_x5 + 0.801369863014 O_x6
 <= 0
TP44583: - 2 I_x1 - I_x2 - 8 I_x3 - 240 I_x4 + 73.5 O_x5 + 0.820833333333 O_x6
 <= 0
TP45204: - 3 I_x1 - 4 I_x2 - 13 I_x3 - 350 I_x4 + 75.875 O_x5
 + 0.862857142857 O_x6 <= 0
TP45206: - I_x1 - I_x2 - 3 I_x3 - 84 I_x4 + 79 O_x5 + O_x6 <= 0
TP45249: - I_x1 - I_x2 - 2 I_x3 - 42 I_x4 + 51.75 O_x5 + 0.571428571429 O_x6
 <= 0
TP45521: - I_x1 - I_x2 - 16 I_x3 - 499 I_x4 + 70.42 O_x5 + 0.98997995992 O_x6
 <= 0
TP45735: - 2 I_x1 - I_x2 - 2 I_x3 - 60 I_x4 + 58.5 O_x5 + 0.483333333333 O_x6
 <= 0
TP46088: - 2 I_x1 - I_x2 - 5 I_x3 - 138 I_x4 + 82 O_x5 + 0.905797101449 O_x6
 <= 0
TP46431: - I_x1 - I_x2 - 2 I_x3 - 50 I_x4 + 86.385 O_x5 + 0.96 O_x6 <= 0
TP49134: - I_x1 - I_x2 - 2 I_x3 - 54 I_x4 + 78 O_x5 + 0.87037037037 O_x6 <= 0
TP50398: - I_x1 - I_x2 - 2 I_x3 - 70 I_x4 + 75.5 O_x5 + 0.914285714286 O_x6
 <= 0
TP50778: - I_x1 - I_x2 - 5 I_x3 - 159 I_x4 + 80.75 O_x5 + 0.842767295597 O_x6
 <= 0
TP51269: - I_x1 - I_x2 - 3 I_x3 - 94 I_x4 + 75.5 O_x5 + 0.978723404255 O_x6
 <= 0
TP51421: - I_x1 - I_x2 - 2 I_x3 - 62 I_x4 + 77.75 O_x5 + 0.935483870968 O_x6
 <= 0
TP53358: - I_x1 - I_x2 - 4 I_x3 - 120 I_x4 + 72.5 O_x5 + 0.85 O_x6 <= 0
TP55841: - I_x1 - I_x2 - 3 I_x3 - 75 I_x4 + 72.5 O_x5 + 0.733333333333 O_x6
 <= 0
TP_16827: - 2 I_x1 - I_x2 - 2 I_x3 - 131 I_x4 + 80 O_x5 + 0.832061068702 O_x6
 <= 0
End
